========================================================== 
File name: C:\DEGR\assets\definitions\MSRCPSP_Gen\200_10_64_5_D.def
Creation date: Wed May 03 10:45:51 CEST 2023
Website: http://imopse.ii.pwr.edu.pl/ 
Reference: 
Myszkowski P. B., Skowronski M. E., Olech L., Oslizlo K., 
Hybrid Ant Colony Optimization in solving Multi-Skill Resource-Constrained Project Scheduling Problem, 
Soft Computing, DOI: DOI 10.1007/s00500-014-1455-x 
========================================================== 
General characteristics: 
Tasks: 200
Resources: 10
Precedence relations: 64
Number of skill types: 5
========================================================== 
ResourceID 	 Salary 	 Skills 
1	 	 	68.1	 	 Q1: 3 	  Q3: 0 	  Q4: 2 	  Q2: 0 	 
2	 	 	57.6	 	 Q2: 1 	  Q0: 0 	 
3	 	 	73.3	 	 Q3: 2 	 
4	 	 	94.5	 	 Q3: 0 	  Q4: 2 	  Q2: 0 	  Q1: 1 	 
5	 	 	25.5	 	 Q1: 2 	  Q4: 1 	  Q3: 1 	 
6	 	 	83.8	 	 Q2: 3 	  Q3: 0 	 
7	 	 	91.8	 	 Q3: 2 	  Q2: 0 	  Q1: 0 	  Q4: 0 	 
8	 	 	20.0	 	 Q2: 2 	 
9	 	 	32.7	 	 Q4: 2 	  Q2: 1 	 
10	 	 	53.6	 	 Q0: 0 	  Q1: 2 	  Q4: 0 	 
========================================================== 
TaskID 	 Duration 	 Skill 	 Predecessor IDs 
1	28	Q4:	0
2	21	Q4:	1
3	11	Q4:	2
4	11	Q2:	2
5	24	Q2:	0
6	26	Q3:	0
7	22	Q2:	2
8	21	Q3:	1
9	16	Q1:	3
10	30	Q1:	1
11	37	Q2:	3
12	28	Q4:	0
13	12	Q3:	2
14	20	Q0:	0
15	14	Q4:	1
16	22	Q2:	1
17	36	Q2:	1
18	37	Q2:	1
19	16	Q0:	0
20	38	Q2:	1
21	14	Q3:	1
22	18	Q4:	0
23	19	Q1:	3
24	24	Q2:	1	14
25	18	Q4:	2
26	10	Q3:	2
27	34	Q3:	2
28	22	Q2:	2
29	40	Q1:	3
30	34	Q1:	1
31	34	Q2:	1
32	17	Q2:	0
33	32	Q2:	2
34	24	Q3:	0
35	19	Q1:	2
36	37	Q4:	0
37	27	Q4:	2
38	35	Q4:	0
39	17	Q2:	3
40	12	Q1:	3
41	9	Q1:	1	7
42	32	Q2:	1
43	28	Q3:	0
44	11	Q2:	1
45	24	Q4:	2
46	23	Q1:	3
47	37	Q1:	1
48	9	Q2:	3	27
49	30	Q3:	0	35
50	23	Q4:	2
51	23	Q0:	0
52	15	Q2:	2
53	40	Q3:	1
54	10	Q3:	2
55	39	Q1:	0
56	11	Q1:	1	31
57	30	Q2:	0
58	11	Q0:	0
59	21	Q0:	0
60	27	Q0:	0
61	28	Q0:	0
62	17	Q4:	1
63	14	Q1:	0
64	39	Q4:	1
65	26	Q3:	0
66	40	Q4:	0
67	16	Q0:	0	51
68	24	Q3:	1
69	15	Q1:	0
70	20	Q1:	1
71	25	Q2:	1	22
72	39	Q3:	2
73	15	Q2:	0
74	38	Q4:	0	37
75	10	Q1:	2	11
76	20	Q3:	1
77	13	Q3:	1	58
78	36	Q1:	2	62
79	9	Q2:	1
80	26	Q1:	2
81	13	Q0:	0
82	17	Q4:	0
83	12	Q2:	2
84	17	Q2:	2	44
85	11	Q1:	3
86	21	Q2:	0
87	29	Q2:	2	41
88	15	Q4:	1
89	39	Q3:	0
90	17	Q3:	2
91	36	Q3:	2	35
92	33	Q1:	1
93	35	Q1:	1	53
94	38	Q2:	2
95	15	Q3:	2	65
96	28	Q2:	2
97	10	Q4:	0	78
98	30	Q2:	0
99	33	Q2:	1	89	37
100	27	Q2:	2
101	38	Q1:	3
102	24	Q1:	2
103	23	Q1:	0
104	11	Q1:	2
105	21	Q3:	2	46
106	35	Q3:	0
107	38	Q3:	0
108	23	Q1:	3	66
109	33	Q4:	2
110	24	Q1:	3	95
111	38	Q2:	3
112	17	Q0:	0	71
113	11	Q1:	2
114	26	Q1:	2
115	31	Q1:	2
116	40	Q2:	3
117	39	Q0:	0
118	39	Q2:	1	14
119	27	Q2:	2
120	37	Q4:	1	96
121	23	Q2:	2
122	14	Q1:	1
123	27	Q3:	2
124	37	Q1:	1
125	38	Q2:	3
126	22	Q1:	2
127	40	Q1:	1
128	36	Q2:	0	50
129	19	Q3:	2	45
130	29	Q3:	1
131	12	Q1:	3	76
132	25	Q1:	0	129
133	29	Q2:	3
134	19	Q1:	3
135	23	Q2:	1
136	40	Q1:	0
137	34	Q1:	3	50	56
138	35	Q4:	2
139	32	Q2:	1	5
140	28	Q4:	2
141	31	Q1:	0	119
142	39	Q2:	0
143	27	Q3:	2
144	20	Q4:	0
145	23	Q1:	0
146	29	Q1:	2	33
147	35	Q2:	2
148	35	Q4:	2
149	27	Q3:	0
150	21	Q2:	3
151	20	Q2:	2	116
152	38	Q1:	1
153	22	Q2:	2
154	29	Q3:	1	36
155	13	Q4:	0	5
156	20	Q4:	2
157	35	Q2:	3
158	19	Q4:	1	49
159	13	Q4:	1	48	60
160	35	Q3:	0	82
161	36	Q4:	2
162	24	Q4:	0
163	24	Q3:	0
164	30	Q3:	0	150
165	35	Q4:	1
166	10	Q4:	0
167	35	Q4:	0	101
168	29	Q4:	2
169	32	Q1:	1	95
170	27	Q3:	1	109	3
171	28	Q3:	2
172	18	Q4:	0
173	11	Q1:	0
174	25	Q1:	1	110
175	28	Q2:	3	138
176	26	Q4:	0
177	39	Q2:	2
178	10	Q2:	3
179	11	Q3:	1	97
180	15	Q1:	3
181	23	Q2:	3	12
182	10	Q4:	1	2
183	9	Q0:	0
184	34	Q2:	0	151	104
185	23	Q4:	1	6
186	23	Q2:	1	164
187	17	Q1:	0	100	78
188	39	Q4:	0	105
189	21	Q2:	0
190	12	Q4:	2	81
191	40	Q1:	1
192	36	Q2:	3	165
193	17	Q3:	0
194	18	Q1:	3
195	18	Q1:	0
196	39	Q1:	3
197	26	Q2:	1	48	19
198	25	Q1:	0	48
199	9	Q1:	0
200	35	Q3:	1	132
========================================================== 